certificates/rado_a14_c108_N40.cnf
c Rad2 upper bound instance: x1 + 14*x2 - x3 = 108, interval [1,40]
p cnf 40 228
1 5 8 0
-1 -5 -8 0
1 9 19 0
-1 -9 -19 0
1 10 33 0
-1 -10 -33 0
2 6 8 0
-2 -6 -8 0
2 9 20 0
-2 -9 -20 0
2 10 34 0
-2 -10 -34 0
3 7 8 0
-3 -7 -8 0
3 9 21 0
-3 -9 -21 0
3 10 35 0
-3 -10 -35 0
4 8 0
-4 -8 0
4 9 22 0
-4 -9 -22 0
4 10 36 0
-4 -10 -36 0
5 8 9 0
-5 -8 -9 0
5 9 23 0
-5 -9 -23 0
5 10 37 0
-5 -10 -37 0
6 8 10 0
-6 -8 -10 0
6 9 24 0
-6 -9 -24 0
6 10 38 0
-6 -10 -38 0
7 8 11 0
-7 -8 -11 0
7 9 25 0
-7 -9 -25 0
7 10 39 0
-7 -10 -39 0
8 12 0
-8 -12 0
8 9 26 0
-8 -9 -26 0
8 10 40 0
-8 -10 -40 0
8 9 13 0
-8 -9 -13 0
9 27 0
-9 -27 0
8 10 14 0
-8 -10 -14 0
9 10 28 0
-9 -10 -28 0
1 7 11 0
-1 -7 -11 0
8 11 15 0
-8 -11 -15 0
9 11 29 0
-9 -11 -29 0
2 7 12 0
-2 -7 -12 0
8 12 16 0
-8 -12 -16 0
9 12 30 0
-9 -12 -30 0
3 7 13 0
-3 -7 -13 0
8 13 17 0
-8 -13 -17 0
9 13 31 0
-9 -13 -31 0
4 7 14 0
-4 -7 -14 0
8 14 18 0
-8 -14 -18 0
9 14 32 0
-9 -14 -32 0
5 7 15 0
-5 -7 -15 0
8 15 19 0
-8 -15 -19 0
9 15 33 0
-9 -15 -33 0
6 7 16 0
-6 -7 -16 0
8 16 20 0
-8 -16 -20 0
9 16 34 0
-9 -16 -34 0
7 17 0
-7 -17 0
8 17 21 0
-8 -17 -21 0
9 17 35 0
-9 -17 -35 0
7 8 18 0
-7 -8 -18 0
8 18 22 0
-8 -18 -22 0
9 18 36 0
-9 -18 -36 0
7 9 19 0
-7 -9 -19 0
8 19 23 0
-8 -19 -23 0
9 19 37 0
-9 -19 -37 0
7 10 20 0
-7 -10 -20 0
8 20 24 0
-8 -20 -24 0
9 20 38 0
-9 -20 -38 0
7 11 21 0
-7 -11 -21 0
8 21 25 0
-8 -21 -25 0
9 21 39 0
-9 -21 -39 0
7 12 22 0
-7 -12 -22 0
8 22 26 0
-8 -22 -26 0
9 22 40 0
-9 -22 -40 0
7 13 23 0
-7 -13 -23 0
8 23 27 0
-8 -23 -27 0
7 14 24 0
-7 -14 -24 0
8 24 28 0
-8 -24 -28 0
1 6 25 0
-1 -6 -25 0
7 15 25 0
-7 -15 -25 0
8 25 29 0
-8 -25 -29 0
2 6 26 0
-2 -6 -26 0
7 16 26 0
-7 -16 -26 0
8 26 30 0
-8 -26 -30 0
3 6 27 0
-3 -6 -27 0
7 17 27 0
-7 -17 -27 0
8 27 31 0
-8 -27 -31 0
4 6 28 0
-4 -6 -28 0
7 18 28 0
-7 -18 -28 0
8 28 32 0
-8 -28 -32 0
5 6 29 0
-5 -6 -29 0
7 19 29 0
-7 -19 -29 0
8 29 33 0
-8 -29 -33 0
6 30 0
-6 -30 0
7 20 30 0
-7 -20 -30 0
8 30 34 0
-8 -30 -34 0
6 7 31 0
-6 -7 -31 0
7 21 31 0
-7 -21 -31 0
8 31 35 0
-8 -31 -35 0
6 8 32 0
-6 -8 -32 0
7 22 32 0
-7 -22 -32 0
8 32 36 0
-8 -32 -36 0
6 9 33 0
-6 -9 -33 0
7 23 33 0
-7 -23 -33 0
8 33 37 0
-8 -33 -37 0
6 10 34 0
-6 -10 -34 0
7 24 34 0
-7 -24 -34 0
8 34 38 0
-8 -34 -38 0
6 11 35 0
-6 -11 -35 0
7 25 35 0
-7 -25 -35 0
8 35 39 0
-8 -35 -39 0
6 12 36 0
-6 -12 -36 0
7 26 36 0
-7 -26 -36 0
8 36 40 0
-8 -36 -40 0
6 13 37 0
-6 -13 -37 0
7 27 37 0
-7 -27 -37 0
6 14 38 0
-6 -14 -38 0
7 28 38 0
-7 -28 -38 0
1 5 39 0
-1 -5 -39 0
6 15 39 0
-6 -15 -39 0
7 29 39 0
-7 -29 -39 0
2 5 40 0
-2 -5 -40 0
6 16 40 0
-6 -16 -40 0
7 30 40 0
-7 -30 -40 0
