certificates/rado_a14_c108_N40.drat
-36 -40 0
d -36 -8 -40 0
10 8 -38 0
8 -37 -38 -39 0
-8 -40 0
-38 -39 -40 0
-10 -34 8 0
38 8 0
-40 0
8 -10 0
d -34 8 -10 0
-10 0
8 0
-4 0
-12 0
36 0
-32 0
34 0
-38 0
-30 0
6 0
7 0
9 0
-2 0
-3 0
-11 0
-17 0
-18 0
-26 0
-24 0
-16 0
-31 0
-25 0
-13 0
-27 0
-19 0
-33 0
-5 0
0
